study/farce-uclibc/output/TypeErrors/DimacsConstraints/constraint_633.dimacs
c 4 __UCLIBC_HAS_CRYPT__
c 1 __UCLIBC_HAS_THREADS_NATIVE__
c 5 __UCLIBC_HAS_SHA512_CRYPT_IMPL__
c 2 __UCLIBC_HAS_XLOCALE__
c 6 __UCLIBC_HAS_LOCALE__
c 3 __UCLIBC_HAS_THREADS__
p cnf 6 1
-2 -3 -5 -1 6 -4 1
